s td 15 6 20
b 1 1 2 3 4
b 2 1 11 12
b 3 7 19 20
b 4 7 8 18 19
b 5 1 2 4 5 12 17
b 6 1 2 5 8 12 17
b 7 1 2 5 7 8 17
b 8 1 2 5 6 7 17
b 9 7 8 17 18
b 10 1 2 8 9 12 17
b 11 1 4 5 12 15 17
b 12 1 4 12 14 15
b 13 4 12 13 14
b 14 5 15 16 17
b 15 1 2 9 10 17
1 5
2 5
3 4
4 9
5 6
5 11
6 7
6 10
7 8
7 9
10 15
11 12
11 14
12 13
